c "451269.clq"
p edge 252 3776
e 1 17
e 1 18
e 1 19
e 1 20
e 1 21
e 1 22
e 1 23
e 1 24
e 1 28
e 1 30
e 1 31
e 1 35
e 1 36
e 1 40
e 1 48
e 1 51
e 1 52
e 1 58
e 1 59
e 1 60
e 1 61
e 1 63
e 1 65
e 1 66
e 1 75
e 1 81
e 1 101
e 1 104
e 1 105
e 1 111
e 1 112
e 1 116
e 1 118
e 1 126
e 1 140
e 1 175
e 1 179
e 1 186
e 1 204
e 1 209
e 1 213
e 1 218
e 1 226
e 1 227
e 1 231
e 1 233
e 2 17
e 2 18
e 2 19
e 2 20
e 2 21
e 2 24
e 2 32
e 2 44
e 2 46
e 2 54
e 2 70
e 2 76
e 2 125
e 2 139
e 2 143
e 2 150
e 2 158
e 2 164
e 2 166
e 2 168
e 2 172
e 2 186
e 2 196
e 2 198
e 2 207
e 2 210
e 2 222
e 2 235
e 3 17
e 3 18
e 3 19
e 3 20
e 3 21
e 3 22
e 3 23
e 3 25
e 3 26
e 3 28
e 3 29
e 3 32
e 3 33
e 3 36
e 3 39
e 3 41
e 3 52
e 3 53
e 3 57
e 3 59
e 3 62
e 3 65
e 3 72
e 3 74
e 3 75
e 3 76
e 3 79
e 3 95
e 3 124
e 3 125
e 3 131
e 3 143
e 3 145
e 3 149
e 3 150
e 3 155
e 3 163
e 3 171
e 3 175
e 3 199
e 3 233
e 3 243
e 3 244
e 3 249
e 4 17
e 4 18
e 4 19
e 4 20
e 4 21
e 4 22
e 4 23
e 4 25
e 4 27
e 4 30
e 4 31
e 4 34
e 4 42
e 4 43
e 4 44
e 4 47
e 4 60
e 4 61
e 4 63
e 4 71
e 4 79
e 4 82
e 4 84
e 4 89
e 4 97
e 4 121
e 4 122
e 4 126
e 4 133
e 4 137
e 4 148
e 4 149
e 4 157
e 4 163
e 4 167
e 4 171
e 4 193
e 4 195
e 4 204
e 4 205
e 4 227
e 5 17
e 5 18
e 5 19
e 5 20
e 5 21
e 5 22
e 5 26
e 5 27
e 5 28
e 5 31
e 5 32
e 5 33
e 5 36
e 5 37
e 5 39
e 5 40
e 5 41
e 5 43
e 5 45
e 5 49
e 5 52
e 5 53
e 5 54
e 5 55
e 5 60
e 5 66
e 5 70
e 5 73
e 5 75
e 5 78
e 5 81
e 5 86
e 5 90
e 5 92
e 5 94
e 5 99
e 5 100
e 5 101
e 5 106
e 5 107
e 5 109
e 5 111
e 5 112
e 5 113
e 5 116
e 5 122
e 5 126
e 5 130
e 5 149
e 5 150
e 5 155
e 5 157
e 5 158
e 5 171
e 5 175
e 5 177
e 5 181
e 5 197
e 5 200
e 5 204
e 5 210
e 5 223
e 5 228
e 5 251
e 5 252
e 6 17
e 6 18
e 6 19
e 6 20
e 6 22
e 6 24
e 6 25
e 6 27
e 6 30
e 6 33
e 6 36
e 6 38
e 6 39
e 6 40
e 6 42
e 6 43
e 6 51
e 6 57
e 6 58
e 6 61
e 6 66
e 6 69
e 6 71
e 6 73
e 6 85
e 6 100
e 6 113
e 6 129
e 6 130
e 6 134
e 6 135
e 6 144
e 6 147
e 6 168
e 6 179
e 6 190
e 6 195
e 6 217
e 6 224
e 6 244
e 6 250
e 7 17
e 7 18
e 7 19
e 7 20
e 7 21
e 7 22
e 7 24
e 7 25
e 7 26
e 7 27
e 7 28
e 7 29
e 7 31
e 7 32
e 7 33
e 7 35
e 7 36
e 7 38
e 7 42
e 7 49
e 7 50
e 7 53
e 7 54
e 7 55
e 7 63
e 7 67
e 7 69
e 7 70
e 7 72
e 7 77
e 7 79
e 7 81
e 7 82
e 7 83
e 7 87
e 7 99
e 7 103
e 7 107
e 7 121
e 7 122
e 7 124
e 7 128
e 7 133
e 7 148
e 7 151
e 7 155
e 7 156
e 7 157
e 7 158
e 7 167
e 7 170
e 7 176
e 7 177
e 7 211
e 7 215
e 7 229
e 7 238
e 7 242
e 7 245
e 7 249
e 8 17
e 8 18
e 8 19
e 8 20
e 8 21
e 8 22
e 8 23
e 8 24
e 8 25
e 8 26
e 8 28
e 8 29
e 8 31
e 8 32
e 8 34
e 8 35
e 8 43
e 8 49
e 8 50
e 8 52
e 8 55
e 8 58
e 8 63
e 8 68
e 8 78
e 8 82
e 8 86
e 8 89
e 8 91
e 8 94
e 8 96
e 8 105
e 8 109
e 8 115
e 8 121
e 8 122
e 8 123
e 8 134
e 8 135
e 8 139
e 8 142
e 8 151
e 8 158
e 8 160
e 8 170
e 8 175
e 8 183
e 8 200
e 8 217
e 8 247
e 9 17
e 9 18
e 9 19
e 9 22
e 9 23
e 9 25
e 9 27
e 9 30
e 9 32
e 9 34
e 9 38
e 9 47
e 9 48
e 9 61
e 9 62
e 9 64
e 9 71
e 9 97
e 9 98
e 9 99
e 9 100
e 9 102
e 9 129
e 9 133
e 9 151
e 9 160
e 9 177
e 9 182
e 9 185
e 9 201
e 9 211
e 9 220
e 9 228
e 9 244
e 9 248
e 10 17
e 10 18
e 10 20
e 10 21
e 10 26
e 10 27
e 10 28
e 10 32
e 10 36
e 10 39
e 10 40
e 10 41
e 10 42
e 10 44
e 10 46
e 10 50
e 10 53
e 10 58
e 10 69
e 10 71
e 10 84
e 10 87
e 10 89
e 10 100
e 10 118
e 10 121
e 10 138
e 10 153
e 10 158
e 10 159
e 10 177
e 10 185
e 10 190
e 10 193
e 10 200
e 10 207
e 10 208
e 10 209
e 10 234
e 11 17
e 11 18
e 11 19
e 11 20
e 11 21
e 11 22
e 11 23
e 11 24
e 11 25
e 11 26
e 11 28
e 11 29
e 11 36
e 11 42
e 11 48
e 11 50
e 11 55
e 11 61
e 11 67
e 11 68
e 11 73
e 11 75
e 11 78
e 11 84
e 11 87
e 11 92
e 11 93
e 11 95
e 11 102
e 11 105
e 11 106
e 11 110
e 11 120
e 11 126
e 11 129
e 11 131
e 11 140
e 11 145
e 11 151
e 11 152
e 11 154
e 11 155
e 11 158
e 11 160
e 11 166
e 11 191
e 11 217
e 11 231
e 11 234
e 11 236
e 11 238
e 11 240
e 12 17
e 12 18
e 12 21
e 12 22
e 12 24
e 12 25
e 12 30
e 12 31
e 12 32
e 12 35
e 12 37
e 12 38
e 12 41
e 12 43
e 12 45
e 12 49
e 12 51
e 12 55
e 12 60
e 12 64
e 12 66
e 12 67
e 12 74
e 12 79
e 12 83
e 12 101
e 12 113
e 12 119
e 12 127
e 12 142
e 12 147
e 12 148
e 12 157
e 12 160
e 12 164
e 12 170
e 12 182
e 12 183
e 12 200
e 12 204
e 12 229
e 12 240
e 13 17
e 13 18
e 13 19
e 13 20
e 13 23
e 13 24
e 13 26
e 13 27
e 13 33
e 13 34
e 13 37
e 13 39
e 13 44
e 13 47
e 13 53
e 13 57
e 13 64
e 13 66
e 13 68
e 13 91
e 13 95
e 13 98
e 13 103
e 13 113
e 13 126
e 13 132
e 13 141
e 13 144
e 13 158
e 13 171
e 13 194
e 13 210
e 13 226
e 14 17
e 14 19
e 14 21
e 14 23
e 14 24
e 14 26
e 14 29
e 14 40
e 14 73
e 14 78
e 14 81
e 14 83
e 14 84
e 14 110
e 14 168
e 14 212
e 14 227
e 14 233
e 15 17
e 15 18
e 15 19
e 15 20
e 15 22
e 15 23
e 15 24
e 15 25
e 15 26
e 15 28
e 15 29
e 15 30
e 15 31
e 15 32
e 15 34
e 15 37
e 15 38
e 15 39
e 15 43
e 15 44
e 15 48
e 15 49
e 15 52
e 15 55
e 15 64
e 15 66
e 15 68
e 15 70
e 15 84
e 15 85
e 15 90
e 15 93
e 15 99
e 15 100
e 15 108
e 15 112
e 15 113
e 15 121
e 15 129
e 15 140
e 15 148
e 15 166
e 15 182
e 15 188
e 15 206
e 15 207
e 15 210
e 15 217
e 15 221
e 15 224
e 15 238
e 15 239
e 15 246
e 16 17
e 16 18
e 16 19
e 16 20
e 16 21
e 16 23
e 16 30
e 16 38
e 16 45
e 16 79
e 16 82
e 16 91
e 16 106
e 16 107
e 16 113
e 16 126
e 16 133
e 16 136
e 16 139
e 16 149
e 16 202
e 16 225
e 16 229
e 16 235
e 17 18
e 17 19
e 17 20
e 17 21
e 17 22
e 17 23
e 17 24
e 17 25
e 17 26
e 17 27
e 17 28
e 17 29
e 17 30
e 17 31
e 17 32
e 17 33
e 17 34
e 17 35
e 17 37
e 17 38
e 17 40
e 17 41
e 17 42
e 17 43
e 17 49
e 17 50
e 17 51
e 17 53
e 17 57
e 17 58
e 17 65
e 17 67
e 17 73
e 17 74
e 17 76
e 17 78
e 17 79
e 17 81
e 17 83
e 17 85
e 17 92
e 17 94
e 17 95
e 17 97
e 17 98
e 17 99
e 17 103
e 17 104
e 17 105
e 17 108
e 17 109
e 17 111
e 17 112
e 17 116
e 17 118
e 17 125
e 17 129
e 17 130
e 17 131
e 17 140
e 17 141
e 17 146
e 17 148
e 17 149
e 17 151
e 17 154
e 17 156
e 17 162
e 17 165
e 17 172
e 17 173
e 17 175
e 17 176
e 17 178
e 17 181
e 17 190
e 17 206
e 17 223
e 17 241
e 17 243
e 18 19
e 18 20
e 18 21
e 18 22
e 18 23
e 18 24
e 18 25
e 18 27
e 18 28
e 18 29
e 18 31
e 18 32
e 18 36
e 18 37
e 18 40
e 18 41
e 18 43
e 18 46
e 18 47
e 18 48
e 18 54
e 18 59
e 18 60
e 18 64
e 18 65
e 18 66
e 18 67
e 18 69
e 18 70
e 18 71
e 18 72
e 18 73
e 18 77
e 18 84
e 18 86
e 18 87
e 18 90
e 18 97
e 18 98
e 18 104
e 18 115
e 18 116
e 18 119
e 18 120
e 18 124
e 18 129
e 18 134
e 18 136
e 18 137
e 18 144
e 18 145
e 18 151
e 18 154
e 18 155
e 18 157
e 18 158
e 18 161
e 18 164
e 18 170
e 18 187
e 18 192
e 18 194
e 18 199
e 18 201
e 18 202
e 18 217
e 18 219
e 18 220
e 18 226
e 18 228
e 18 231
e 18 233
e 18 243
e 18 251
e 19 20
e 19 21
e 19 22
e 19 23
e 19 24
e 19 25
e 19 26
e 19 27
e 19 28
e 19 29
e 19 31
e 19 32
e 19 33
e 19 34
e 19 35
e 19 38
e 19 39
e 19 40
e 19 41
e 19 43
e 19 45
e 19 46
e 19 49
e 19 51
e 19 52
e 19 53
e 19 54
e 19 56
e 19 57
e 19 58
e 19 59
e 19 63
e 19 73
e 19 77
e 19 80
e 19 82
e 19 85
e 19 87
e 19 88
e 19 92
e 19 94
e 19 95
e 19 98
e 19 101
e 19 102
e 19 103
e 19 107
e 19 109
e 19 113
e 19 114
e 19 115
e 19 117
e 19 118
e 19 119
e 19 120
e 19 127
e 19 133
e 19 142
e 19 152
e 19 160
e 19 165
e 19 167
e 19 173
e 19 175
e 19 181
e 19 185
e 19 212
e 19 214
e 19 216
e 19 222
e 19 227
e 19 228
e 19 229
e 19 230
e 19 231
e 19 232
e 20 21
e 20 22
e 20 23
e 20 24
e 20 25
e 20 26
e 20 27
e 20 28
e 20 29
e 20 30
e 20 33
e 20 35
e 20 36
e 20 37
e 20 38
e 20 39
e 20 40
e 20 41
e 20 42
e 20 47
e 20 49
e 20 50
e 20 51
e 20 52
e 20 56
e 20 57
e 20 58
e 20 62
e 20 63
e 20 64
e 20 66
e 20 69
e 20 70
e 20 74
e 20 75
e 20 78
e 20 79
e 20 80
e 20 82
e 20 84
e 20 90
e 20 98
e 20 102
e 20 114
e 20 117
e 20 119
e 20 121
e 20 122
e 20 124
e 20 125
e 20 141
e 20 142
e 20 144
e 20 147
e 20 151
e 20 165
e 20 175
e 20 188
e 20 197
e 20 198
e 20 199
e 20 202
e 20 207
e 20 209
e 20 221
e 20 228
e 20 232
e 20 234
e 20 237
e 20 239
e 20 242
e 20 244
e 20 248
e 20 249
e 21 22
e 21 23
e 21 24
e 21 25
e 21 26
e 21 27
e 21 29
e 21 30
e 21 31
e 21 32
e 21 34
e 21 35
e 21 37
e 21 38
e 21 39
e 21 40
e 21 44
e 21 47
e 21 48
e 21 50
e 21 52
e 21 55
e 21 56
e 21 60
e 21 67
e 21 69
e 21 70
e 21 77
e 21 79
e 21 82
e 21 84
e 21 86
e 21 89
e 21 90
e 21 92
e 21 101
e 21 106
e 21 107
e 21 109
e 21 111
e 21 141
e 21 150
e 21 154
e 21 161
e 21 163
e 21 165
e 21 175
e 21 176
e 21 177
e 21 181
e 21 184
e 21 196
e 21 198
e 21 201
e 21 202
e 21 218
e 21 232
e 21 239
e 22 23
e 22 24
e 22 27
e 22 28
e 22 29
e 22 30
e 22 33
e 22 34
e 22 35
e 22 36
e 22 37
e 22 38
e 22 42
e 22 43
e 22 44
e 22 45
e 22 46
e 22 48
e 22 51
e 22 52
e 22 53
e 22 54
e 22 56
e 22 57
e 22 59
e 22 64
e 22 67
e 22 68
e 22 72
e 22 79
e 22 83
e 22 87
e 22 90
e 22 92
e 22 93
e 22 98
e 22 99
e 22 106
e 22 107
e 22 109
e 22 112
e 22 114
e 22 117
e 22 133
e 22 135
e 22 138
e 22 140
e 22 144
e 22 149
e 22 152
e 22 156
e 22 163
e 22 189
e 22 191
e 22 200
e 22 202
e 22 203
e 22 207
e 22 213
e 22 215
e 22 218
e 22 229
e 22 235
e 22 238
e 22 240
e 23 25
e 23 26
e 23 28
e 23 29
e 23 31
e 23 33
e 23 34
e 23 37
e 23 39
e 23 44
e 23 45
e 23 46
e 23 47
e 23 48
e 23 54
e 23 56
e 23 57
e 23 61
e 23 63
e 23 65
e 23 66
e 23 67
e 23 69
e 23 72
e 23 74
e 23 76
e 23 77
e 23 79
e 23 83
e 23 88
e 23 91
e 23 93
e 23 96
e 23 101
e 23 103
e 23 106
e 23 108
e 23 111
e 23 117
e 23 157
e 23 164
e 23 170
e 23 179
e 23 181
e 23 183
e 23 187
e 23 190
e 23 196
e 23 197
e 23 204
e 23 206
e 23 212
e 23 225
e 23 226
e 23 238
e 23 249
e 23 252
e 24 25
e 24 26
e 24 27
e 24 28
e 24 29
e 24 30
e 24 33
e 24 34
e 24 35
e 24 36
e 24 39
e 24 40
e 24 41
e 24 42
e 24 44
e 24 45
e 24 48
e 24 49
e 24 55
e 24 57
e 24 61
e 24 64
e 24 66
e 24 68
e 24 70
e 24 73
e 24 77
e 24 78
e 24 79
e 24 82
e 24 83
e 24 89
e 24 90
e 24 96
e 24 97
e 24 103
e 24 105
e 24 107
e 24 108
e 24 109
e 24 111
e 24 117
e 24 119
e 24 120
e 24 130
e 24 136
e 24 143
e 24 144
e 24 145
e 24 149
e 24 160
e 24 174
e 24 182
e 24 184
e 24 186
e 24 188
e 24 199
e 24 205
e 24 207
e 24 221
e 24 227
e 24 230
e 24 231
e 24 233
e 24 251
e 25 26
e 25 27
e 25 30
e 25 31
e 25 32
e 25 33
e 25 34
e 25 35
e 25 37
e 25 39
e 25 40
e 25 43
e 25 44
e 25 46
e 25 48
e 25 51
e 25 54
e 25 56
e 25 58
e 25 59
e 25 60
e 25 70
e 25 71
e 25 72
e 25 74
e 25 75
e 25 78
e 25 80
e 25 81
e 25 82
e 25 83
e 25 85
e 25 93
e 25 98
e 25 102
e 25 108
e 25 110
e 25 112
e 25 115
e 25 122
e 25 125
e 25 127
e 25 130
e 25 134
e 25 136
e 25 142
e 25 148
e 25 164
e 25 169
e 25 172
e 25 177
e 25 180
e 25 201
e 25 206
e 25 208
e 25 215
e 25 217
e 25 221
e 25 231
e 25 239
e 25 241
e 26 27
e 26 29
e 26 31
e 26 33
e 26 35
e 26 36
e 26 38
e 26 42
e 26 47
e 26 50
e 26 51
e 26 52
e 26 55
e 26 59
e 26 61
e 26 62
e 26 63
e 26 64
e 26 69
e 26 71
e 26 75
e 26 82
e 26 86
e 26 87
e 26 88
e 26 89
e 26 90
e 26 105
e 26 111
e 26 114
e 26 119
e 26 122
e 26 123
e 26 127
e 26 129
e 26 131
e 26 134
e 26 136
e 26 149
e 26 152
e 26 154
e 26 161
e 26 169
e 26 176
e 26 197
e 26 199
e 26 205
e 26 211
e 26 214
e 26 215
e 26 227
e 26 232
e 26 249
e 27 28
e 27 29
e 27 30
e 27 34
e 27 40
e 27 41
e 27 43
e 27 44
e 27 45
e 27 46
e 27 56
e 27 57
e 27 58
e 27 65
e 27 68
e 27 71
e 27 72
e 27 81
e 27 85
e 27 91
e 27 93
e 27 95
e 27 96
e 27 97
e 27 99
e 27 100
e 27 102
e 27 105
e 27 106
e 27 107
e 27 110
e 27 111
e 27 115
e 27 120
e 27 122
e 27 124
e 27 125
e 27 127
e 27 130
e 27 132
e 27 133
e 27 135
e 27 136
e 27 147
e 27 148
e 27 156
e 27 159
e 27 160
e 27 161
e 27 164
e 27 170
e 27 171
e 27 173
e 27 175
e 27 176
e 27 184
e 27 190
e 27 199
e 27 202
e 27 223
e 27 226
e 27 227
e 27 246
e 27 248
e 28 30
e 28 31
e 28 33
e 28 34
e 28 36
e 28 38
e 28 40
e 28 42
e 28 45
e 28 47
e 28 48
e 28 59
e 28 60
e 28 69
e 28 70
e 28 71
e 28 73
e 28 75
e 28 85
e 28 86
e 28 93
e 28 101
e 28 104
e 28 107
e 28 109
e 28 110
e 28 117
e 28 118
e 28 127
e 28 128
e 28 136
e 28 140
e 28 157
e 28 165
e 28 184
e 28 186
e 28 192
e 28 206
e 28 211
e 28 219
e 28 221
e 28 226
e 28 227
e 28 233
e 28 234
e 28 238
e 28 243
e 29 30
e 29 31
e 29 32
e 29 33
e 29 34
e 29 36
e 29 39
e 29 43
e 29 44
e 29 45
e 29 46
e 29 47
e 29 48
e 29 49
e 29 50
e 29 51
e 29 52
e 29 53
e 29 55
e 29 56
e 29 60
e 29 61
e 29 62
e 29 63
e 29 64
e 29 67
e 29 70
e 29 71
e 29 72
e 29 76
e 29 78
e 29 80
e 29 83
e 29 84
e 29 86
e 29 87
e 29 90
e 29 91
e 29 94
e 29 95
e 29 97
e 29 98
e 29 99
e 29 102
e 29 104
e 29 109
e 29 123
e 29 127
e 29 140
e 29 141
e 29 154
e 29 156
e 29 172
e 29 177
e 29 178
e 29 189
e 29 194
e 29 198
e 29 202
e 29 204
e 29 207
e 29 209
e 29 211
e 29 214
e 29 215
e 29 217
e 29 220
e 29 225
e 29 229
e 29 230
e 29 234
e 29 235
e 29 240
e 29 242
e 29 244
e 29 246
e 29 247
e 29 251
e 30 33
e 30 35
e 30 38
e 30 39
e 30 41
e 30 51
e 30 52
e 30 53
e 30 54
e 30 58
e 30 61
e 30 62
e 30 68
e 30 71
e 30 74
e 30 76
e 30 86
e 30 88
e 30 92
e 30 94
e 30 96
e 30 97
e 30 101
e 30 104
e 30 109
e 30 113
e 30 122
e 30 137
e 30 138
e 30 140
e 30 143
e 30 145
e 30 153
e 30 164
e 30 169
e 30 173
e 30 177
e 30 187
e 30 196
e 30 203
e 30 205
e 30 212
e 30 214
e 30 217
e 30 218
e 30 219
e 30 224
e 30 245
e 31 32
e 31 34
e 31 35
e 31 37
e 31 41
e 31 42
e 31 43
e 31 44
e 31 45
e 31 49
e 31 53
e 31 54
e 31 62
e 31 70
e 31 77
e 31 79
e 31 84
e 31 107
e 31 114
e 31 120
e 31 125
e 31 126
e 31 139
e 31 148
e 31 150
e 31 155
e 31 166
e 31 180
e 31 194
e 31 195
e 31 202
e 31 210
e 31 218
e 31 222
e 31 224
e 31 226
e 31 232
e 31 240
e 31 242
e 31 248
e 32 35
e 32 37
e 32 38
e 32 40
e 32 42
e 32 43
e 32 44
e 32 46
e 32 47
e 32 48
e 32 55
e 32 56
e 32 58
e 32 59
e 32 60
e 32 62
e 32 65
e 32 67
e 32 68
e 32 74
e 32 78
e 32 79
e 32 89
e 32 92
e 32 96
e 32 110
e 32 118
e 32 120
e 32 122
e 32 132
e 32 136
e 32 138
e 32 152
e 32 167
e 32 176
e 32 177
e 32 195
e 32 197
e 32 210
e 32 212
e 32 220
e 32 230
e 32 231
e 32 240
e 32 243
e 32 246
e 33 36
e 33 37
e 33 39
e 33 41
e 33 42
e 33 44
e 33 46
e 33 48
e 33 49
e 33 50
e 33 51
e 33 53
e 33 54
e 33 55
e 33 58
e 33 59
e 33 60
e 33 65
e 33 66
e 33 67
e 33 69
e 33 73
e 33 77
e 33 81
e 33 83
e 33 91
e 33 93
e 33 97
e 33 100
e 33 106
e 33 111
e 33 117
e 33 118
e 33 127
e 33 136
e 33 149
e 33 150
e 33 156
e 33 168
e 33 176
e 33 179
e 33 180
e 33 181
e 33 187
e 33 192
e 33 195
e 33 206
e 33 208
e 33 232
e 33 235
e 34 35
e 34 37
e 34 41
e 34 42
e 34 47
e 34 50
e 34 53
e 34 60
e 34 61
e 34 65
e 34 69
e 34 72
e 34 73
e 34 86
e 34 97
e 34 101
e 34 126
e 34 130
e 34 138
e 34 145
e 34 161
e 34 162
e 34 172
e 34 174
e 34 184
e 34 213
e 34 223
e 34 224
e 34 232
e 34 252
e 35 36
e 35 38
e 35 47
e 35 48
e 35 50
e 35 54
e 35 58
e 35 59
e 35 62
e 35 63
e 35 66
e 35 75
e 35 80
e 35 81
e 35 85
e 35 88
e 35 89
e 35 91
e 35 94
e 35 97
e 35 107
e 35 114
e 35 118
e 35 121
e 35 122
e 35 124
e 35 125
e 35 154
e 35 160
e 35 161
e 35 162
e 35 163
e 35 169
e 35 181
e 35 186
e 35 195
e 35 207
e 35 211
e 35 212
e 35 228
e 35 249
e 36 37
e 36 39
e 36 41
e 36 45
e 36 48
e 36 51
e 36 53
e 36 56
e 36 57
e 36 58
e 36 68
e 36 69
e 36 71
e 36 73
e 36 75
e 36 80
e 36 87
e 36 95
e 36 96
e 36 99
e 36 104
e 36 115
e 36 116
e 36 123
e 36 133
e 36 135
e 36 144
e 36 145
e 36 146
e 36 157
e 36 173
e 36 182
e 36 184
e 36 189
e 36 196
e 36 198
e 36 203
e 36 205
e 36 214
e 36 225
e 36 236
e 36 251
e 37 43
e 37 44
e 37 45
e 37 46
e 37 47
e 37 51
e 37 60
e 37 61
e 37 63
e 37 67
e 37 69
e 37 74
e 37 76
e 37 77
e 37 80
e 37 82
e 37 84
e 37 100
e 37 102
e 37 103
e 37 109
e 37 110
e 37 121
e 37 122
e 37 123
e 37 128
e 37 130
e 37 137
e 37 155
e 37 157
e 37 159
e 37 161
e 37 165
e 37 178
e 37 179
e 37 188
e 37 189
e 37 194
e 37 210
e 37 213
e 37 216
e 37 218
e 37 221
e 37 223
e 37 235
e 37 239
e 37 244
e 38 61
e 38 64
e 38 65
e 38 71
e 38 85
e 38 88
e 38 95
e 38 96
e 38 110
e 38 116
e 38 118
e 38 119
e 38 123
e 38 125
e 38 128
e 38 143
e 38 147
e 38 179
e 38 187
e 38 193
e 38 212
e 38 214
e 38 234
e 39 40
e 39 45
e 39 46
e 39 56
e 39 59
e 39 62
e 39 64
e 39 74
e 39 78
e 39 93
e 39 104
e 39 117
e 39 118
e 39 154
e 39 166
e 39 174
e 39 183
e 39 189
e 39 195
e 39 207
e 39 226
e 39 228
e 39 241
e 39 244
e 40 41
e 40 49
e 40 66
e 40 70
e 40 73
e 40 88
e 40 97
e 40 101
e 40 103
e 40 106
e 40 108
e 40 114
e 40 118
e 40 119
e 40 123
e 40 125
e 40 127
e 40 128
e 40 130
e 40 131
e 40 134
e 40 135
e 40 137
e 40 138
e 40 140
e 40 141
e 40 143
e 40 147
e 40 149
e 40 156
e 40 157
e 40 159
e 40 166
e 40 170
e 40 183
e 40 185
e 40 199
e 40 213
e 40 247
e 40 248
e 41 42
e 41 46
e 41 47
e 41 51
e 41 54
e 41 55
e 41 56
e 41 61
e 41 62
e 41 65
e 41 66
e 41 69
e 41 70
e 41 72
e 41 74
e 41 76
e 41 81
e 41 82
e 41 85
e 41 92
e 41 93
e 41 94
e 41 99
e 41 102
e 41 108
e 41 112
e 41 122
e 41 124
e 41 125
e 41 140
e 41 148
e 41 165
e 41 182
e 41 186
e 41 195
e 41 208
e 41 213
e 41 219
e 41 222
e 41 226
e 41 234
e 41 238
e 41 240
e 41 252
e 42 45
e 42 46
e 42 49
e 42 51
e 42 55
e 42 59
e 42 60
e 42 61
e 42 69
e 42 75
e 42 76
e 42 80
e 42 81
e 42 85
e 42 86
e 42 89
e 42 100
e 42 109
e 42 112
e 42 128
e 42 130
e 42 139
e 42 147
e 42 150
e 42 151
e 42 160
e 42 176
e 42 179
e 42 190
e 42 195
e 42 199
e 42 205
e 42 214
e 42 224
e 42 225
e 42 230
e 42 231
e 42 251
e 43 50
e 43 55
e 43 59
e 43 60
e 43 63
e 43 77
e 43 92
e 43 95
e 43 97
e 43 99
e 43 107
e 43 110
e 43 115
e 43 119
e 43 120
e 43 133
e 43 146
e 43 169
e 43 175
e 43 189
e 43 203
e 43 209
e 43 218
e 44 45
e 44 47
e 44 52
e 44 57
e 44 74
e 44 76
e 44 86
e 44 88
e 44 89
e 44 91
e 44 108
e 44 120
e 44 132
e 44 145
e 44 147
e 44 151
e 44 176
e 44 215
e 44 225
e 44 227
e 45 46
e 45 49
e 45 53
e 45 57
e 45 58
e 45 64
e 45 72
e 45 79
e 45 80
e 45 92
e 45 99
e 45 100
e 45 105
e 45 129
e 45 144
e 45 145
e 45 153
e 45 154
e 45 166
e 45 170
e 45 176
e 45 187
e 45 190
e 45 197
e 45 214
e 45 222
e 45 228
e 45 230
e 45 236
e 45 242
e 46 50
e 46 52
e 46 61
e 46 66
e 46 68
e 46 76
e 46 84
e 46 87
e 46 93
e 46 94
e 46 100
e 46 125
e 46 132
e 46 142
e 46 150
e 46 159
e 46 163
e 46 165
e 46 174
e 46 180
e 46 184
e 46 191
e 46 195
e 46 203
e 46 208
e 46 211
e 46 213
e 46 219
e 47 49
e 47 50
e 47 57
e 47 63
e 47 70
e 47 71
e 47 72
e 47 80
e 47 83
e 47 97
e 47 103
e 47 113
e 47 115
e 47 116
e 47 117
e 47 120
e 47 124
e 47 129
e 47 134
e 47 135
e 47 136
e 47 137
e 47 139
e 47 141
e 47 169
e 47 174
e 47 175
e 47 178
e 47 179
e 47 196
e 47 216
e 47 224
e 47 237
e 47 242
e 48 52
e 48 54
e 48 59
e 48 72
e 48 73
e 48 76
e 48 77
e 48 84
e 48 85
e 48 102
e 48 103
e 48 111
e 48 118
e 48 126
e 48 132
e 48 143
e 48 157
e 48 159
e 48 166
e 48 180
e 48 182
e 48 192
e 48 199
e 48 206
e 48 210
e 48 221
e 48 226
e 48 231
e 48 250
e 49 50
e 49 54
e 49 62
e 49 63
e 49 71
e 49 73
e 49 75
e 49 76
e 49 80
e 49 91
e 49 100
e 49 115
e 49 121
e 49 125
e 49 129
e 49 134
e 49 137
e 49 144
e 49 154
e 49 180
e 49 191
e 49 197
e 49 198
e 49 213
e 49 214
e 49 222
e 49 240
e 49 241
e 49 250
e 50 53
e 50 56
e 50 62
e 50 73
e 50 77
e 50 80
e 50 89
e 50 112
e 50 119
e 50 120
e 50 123
e 50 131
e 50 135
e 50 157
e 50 175
e 50 194
e 50 198
e 50 204
e 50 214
e 50 218
e 50 231
e 50 235
e 50 243
e 50 249
e 50 250
e 51 52
e 51 54
e 51 55
e 51 59
e 51 67
e 51 72
e 51 78
e 51 87
e 51 93
e 51 97
e 51 98
e 51 111
e 51 119
e 51 121
e 51 131
e 51 132
e 51 139
e 51 141
e 51 142
e 51 146
e 51 156
e 51 159
e 51 161
e 51 164
e 51 168
e 51 172
e 51 178
e 51 180
e 51 189
e 51 215
e 51 218
e 51 246
e 51 247
e 52 62
e 52 68
e 52 77
e 52 78
e 52 95
e 52 111
e 52 115
e 52 124
e 52 126
e 52 137
e 52 144
e 52 152
e 52 154
e 52 155
e 52 163
e 52 168
e 52 173
e 52 174
e 52 183
e 52 184
e 52 190
e 52 206
e 52 212
e 52 213
e 52 220
e 52 221
e 52 223
e 52 240
e 53 56
e 53 57
e 53 60
e 53 63
e 53 74
e 53 94
e 53 115
e 53 128
e 53 130
e 53 131
e 53 154
e 53 181
e 53 189
e 53 191
e 53 194
e 53 210
e 53 211
e 53 215
e 53 216
e 53 221
e 54 56
e 54 57
e 54 62
e 54 71
e 54 108
e 54 114
e 54 140
e 54 145
e 54 188
e 54 217
e 54 221
e 54 239
e 54 241
e 55 56
e 55 62
e 55 63
e 55 65
e 55 68
e 55 70
e 55 74
e 55 76
e 55 78
e 55 82
e 55 83
e 55 92
e 55 102
e 55 103
e 55 104
e 55 112
e 55 117
e 55 121
e 55 123
e 55 127
e 55 146
e 55 156
e 55 167
e 55 173
e 55 177
e 55 178
e 55 186
e 55 188
e 55 198
e 55 203
e 55 237
e 55 238
e 56 72
e 56 91
e 56 94
e 56 99
e 56 114
e 56 135
e 56 138
e 56 139
e 56 146
e 56 171
e 56 178
e 56 230
e 56 244
e 57 58
e 57 65
e 57 67
e 57 68
e 57 88
e 57 107
e 57 108
e 57 113
e 57 122
e 57 128
e 57 138
e 57 144
e 57 145
e 57 151
e 57 155
e 57 164
e 57 169
e 57 185
e 57 203
e 57 208
e 57 216
e 57 245
e 57 246
e 57 250
e 57 252
e 58 90
e 58 96
e 58 131
e 58 146
e 58 148
e 58 163
e 58 171
e 58 174
e 58 186
e 58 189
e 58 192
e 58 203
e 58 208
e 58 210
e 58 212
e 58 217
e 58 225
e 58 229
e 58 240
e 59 64
e 59 67
e 59 68
e 59 78
e 59 79
e 59 81
e 59 85
e 59 88
e 59 93
e 59 96
e 59 98
e 59 99
e 59 101
e 59 102
e 59 104
e 59 106
e 59 111
e 59 112
e 59 115
e 59 123
e 59 124
e 59 127
e 59 131
e 59 139
e 59 142
e 59 148
e 59 152
e 59 156
e 59 164
e 59 174
e 59 180
e 59 190
e 59 191
e 59 192
e 59 203
e 59 207
e 59 210
e 59 237
e 59 238
e 59 241
e 59 242
e 59 243
e 60 64
e 60 67
e 60 74
e 60 75
e 60 77
e 60 87
e 60 100
e 60 106
e 60 114
e 60 126
e 60 127
e 60 137
e 60 143
e 60 159
e 60 168
e 60 200
e 60 202
e 60 222
e 61 65
e 61 69
e 61 89
e 61 96
e 61 107
e 61 127
e 61 130
e 61 136
e 61 163
e 61 165
e 61 172
e 61 193
e 61 194
e 61 213
e 62 82
e 62 88
e 62 100
e 62 128
e 62 137
e 62 141
e 62 150
e 62 153
e 62 167
e 62 232
e 63 64
e 63 65
e 63 81
e 63 84
e 63 86
e 63 93
e 63 96
e 63 98
e 63 109
e 63 110
e 63 120
e 63 128
e 63 133
e 63 162
e 63 170
e 63 180
e 63 184
e 63 186
e 63 204
e 64 65
e 64 66
e 64 76
e 64 81
e 64 83
e 64 85
e 64 88
e 64 90
e 64 91
e 64 93
e 64 96
e 64 104
e 64 106
e 64 112
e 64 113
e 64 116
e 64 120
e 64 128
e 64 139
e 64 147
e 64 178
e 64 201
e 64 202
e 64 216
e 64 224
e 64 236
e 65 68
e 65 76
e 65 80
e 65 101
e 65 116
e 65 122
e 65 123
e 65 153
e 65 156
e 65 187
e 65 195
e 65 197
e 65 214
e 65 225
e 65 227
e 65 234
e 65 236
e 65 237
e 66 74
e 66 77
e 66 80
e 66 98
e 66 105
e 66 108
e 66 115
e 66 129
e 66 169
e 66 180
e 66 192
e 66 203
e 66 215
e 66 241
e 67 75
e 67 80
e 67 86
e 67 90
e 67 100
e 67 103
e 67 106
e 67 110
e 67 114
e 67 121
e 67 146
e 67 153
e 67 158
e 67 171
e 67 176
e 67 177
e 67 183
e 67 198
e 68 78
e 68 81
e 68 86
e 68 87
e 68 96
e 68 103
e 68 105
e 68 108
e 68 109
e 68 117
e 68 125
e 68 138
e 68 154
e 68 166
e 68 168
e 68 192
e 68 197
e 68 235
e 69 72
e 69 83
e 69 85
e 69 87
e 69 90
e 69 94
e 69 99
e 69 110
e 69 111
e 69 121
e 69 122
e 69 123
e 69 126
e 69 127
e 69 131
e 69 138
e 69 141
e 69 148
e 69 150
e 69 162
e 69 191
e 69 195
e 69 197
e 69 198
e 69 199
e 69 201
e 69 217
e 69 224
e 69 243
e 69 245
e 69 246
e 70 95
e 70 107
e 70 108
e 70 112
e 70 131
e 70 134
e 70 149
e 70 155
e 70 167
e 70 172
e 70 189
e 70 224
e 70 230
e 71 87
e 71 88
e 71 89
e 71 111
e 71 113
e 71 114
e 71 116
e 71 119
e 71 132
e 71 145
e 71 162
e 71 165
e 71 175
e 71 185
e 71 188
e 71 189
e 71 194
e 71 198
e 71 219
e 71 225
e 71 238
e 72 75
e 72 82
e 72 95
e 72 148
e 72 156
e 72 159
e 72 181
e 72 202
e 72 205
e 72 231
e 72 232
e 73 82
e 73 83
e 73 84
e 73 86
e 73 88
e 73 93
e 73 100
e 73 103
e 73 114
e 73 118
e 73 139
e 73 147
e 73 187
e 73 198
e 73 215
e 73 216
e 74 75
e 74 77
e 74 79
e 74 119
e 74 120
e 74 136
e 74 161
e 74 170
e 74 181
e 74 212
e 74 213
e 74 252
e 75 85
e 75 89
e 75 98
e 75 99
e 75 103
e 75 106
e 75 114
e 75 115
e 75 130
e 75 135
e 75 151
e 75 153
e 75 162
e 75 173
e 75 178
e 75 185
e 75 207
e 75 223
e 75 227
e 75 242
e 75 243
e 76 92
e 76 102
e 76 105
e 76 127
e 76 129
e 76 164
e 76 182
e 76 183
e 76 188
e 76 208
e 76 216
e 77 81
e 77 86
e 77 103
e 77 105
e 77 110
e 77 113
e 77 119
e 77 127
e 77 163
e 77 219
e 77 222
e 77 233
e 77 234
e 77 237
e 78 80
e 78 89
e 78 94
e 78 95
e 78 105
e 78 143
e 78 147
e 78 160
e 78 162
e 78 178
e 78 230
e 78 233
e 78 237
e 79 84
e 79 91
e 79 104
e 79 117
e 79 124
e 79 150
e 79 164
e 79 191
e 79 225
e 79 233
e 79 241
e 80 129
e 80 133
e 80 137
e 80 160
e 80 163
e 80 173
e 80 174
e 80 176
e 80 181
e 80 192
e 81 87
e 81 90
e 81 94
e 81 96
e 81 107
e 81 116
e 81 130
e 81 135
e 81 145
e 81 153
e 81 158
e 81 165
e 81 167
e 81 170
e 81 179
e 81 191
e 81 192
e 81 193
e 81 197
e 81 212
e 81 213
e 81 221
e 81 242
e 81 248
e 82 83
e 82 92
e 82 102
e 82 105
e 82 116
e 82 129
e 82 130
e 82 133
e 82 143
e 82 146
e 82 151
e 82 160
e 82 167
e 82 215
e 82 216
e 82 220
e 82 226
e 83 88
e 83 90
e 83 91
e 83 92
e 83 101
e 83 105
e 83 110
e 83 112
e 83 115
e 83 129
e 83 131
e 83 132
e 83 138
e 83 139
e 83 145
e 83 158
e 83 160
e 83 167
e 83 176
e 83 178
e 83 180
e 83 190
e 83 250
e 84 88
e 84 94
e 84 143
e 84 153
e 84 182
e 85 92
e 85 126
e 85 150
e 85 158
e 85 173
e 85 175
e 85 190
e 85 233
e 85 251
e 86 89
e 86 95
e 86 101
e 86 104
e 86 110
e 86 113
e 86 138
e 86 139
e 86 150
e 86 151
e 86 162
e 86 169
e 86 171
e 86 174
e 86 182
e 86 188
e 86 192
e 86 202
e 86 204
e 86 209
e 86 217
e 86 219
e 86 236
e 86 242
e 86 246
e 86 249
e 86 250
e 87 90
e 87 96
e 87 101
e 87 104
e 87 110
e 87 112
e 87 116
e 87 121
e 87 138
e 87 144
e 87 147
e 87 160
e 87 164
e 87 165
e 87 169
e 87 178
e 87 181
e 87 209
e 87 250
e 88 91
e 88 106
e 88 138
e 88 142
e 88 150
e 88 162
e 88 163
e 88 184
e 88 206
e 88 251
e 89 91
e 89 117
e 89 126
e 89 170
e 89 174
e 89 198
e 89 200
e 89 218
e 89 248
e 90 98
e 90 102
e 90 108
e 90 125
e 90 136
e 90 154
e 90 155
e 90 169
e 90 203
e 90 206
e 90 229
e 90 230
e 90 238
e 91 94
e 91 97
e 91 98
e 91 108
e 91 128
e 91 140
e 91 145
e 91 148
e 91 172
e 91 175
e 91 178
e 91 187
e 91 194
e 91 201
e 91 208
e 91 248
e 92 113
e 92 120
e 92 121
e 92 142
e 92 148
e 92 179
e 93 95
e 93 113
e 93 133
e 93 135
e 93 141
e 93 157
e 93 161
e 93 171
e 93 172
e 93 173
e 93 182
e 93 185
e 93 190
e 93 193
e 93 201
e 93 202
e 93 211
e 93 251
e 94 101
e 94 109
e 94 123
e 94 140
e 94 152
e 94 162
e 94 204
e 94 242
e 94 243
e 94 249
e 95 109
e 95 111
e 95 123
e 95 134
e 95 139
e 95 142
e 95 146
e 95 151
e 95 152
e 95 164
e 95 170
e 95 245
e 95 246
e 95 250
e 96 104
e 96 140
e 96 142
e 96 157
e 96 159
e 96 163
e 96 171
e 96 183
e 96 228
e 97 104
e 97 128
e 97 135
e 97 142
e 97 165
e 97 194
e 97 236
e 97 242
e 97 248
e 98 118
e 98 142
e 98 164
e 98 189
e 98 201
e 98 216
e 98 246
e 98 252
e 99 108
e 99 116
e 99 154
e 99 158
e 99 176
e 99 186
e 99 189
e 99 200
e 99 201
e 99 207
e 99 225
e 99 227
e 100 102
e 100 120
e 100 124
e 100 128
e 100 134
e 100 137
e 100 141
e 100 153
e 100 157
e 100 162
e 100 172
e 100 173
e 100 177
e 100 179
e 100 181
e 100 204
e 100 244
e 101 116
e 101 118
e 101 121
e 101 123
e 101 143
e 101 146
e 101 160
e 101 161
e 101 163
e 101 193
e 101 199
e 101 218
e 101 233
e 101 247
e 101 248
e 102 124
e 102 134
e 102 151
e 102 165
e 102 166
e 102 189
e 102 212
e 103 105
e 103 106
e 103 126
e 103 128
e 103 129
e 103 144
e 103 167
e 103 187
e 103 195
e 103 196
e 103 197
e 103 198
e 103 213
e 103 216
e 103 235
e 103 239
e 103 251
e 104 114
e 104 117
e 104 128
e 104 132
e 104 143
e 104 166
e 104 185
e 104 187
e 104 188
e 104 196
e 104 197
e 104 205
e 104 209
e 104 236
e 104 238
e 105 119
e 105 132
e 105 145
e 105 152
e 105 153
e 105 171
e 105 186
e 105 193
e 105 203
e 105 210
e 105 228
e 106 117
e 106 124
e 106 141
e 106 144
e 106 147
e 106 151
e 106 156
e 106 173
e 106 183
e 106 187
e 106 219
e 106 222
e 106 247
e 107 112
e 107 131
e 107 134
e 107 147
e 107 155
e 107 182
e 107 205
e 107 224
e 108 116
e 108 130
e 108 131
e 108 168
e 108 182
e 108 184
e 108 187
e 108 205
e 108 207
e 108 211
e 109 177
e 109 193
e 109 225
e 109 231
e 110 125
e 110 132
e 110 137
e 110 139
e 110 152
e 110 158
e 110 161
e 110 168
e 110 190
e 110 207
e 110 222
e 111 117
e 111 141
e 111 166
e 111 192
e 111 200
e 111 216
e 112 114
e 112 126
e 112 135
e 112 152
e 112 176
e 112 179
e 112 215
e 112 230
e 112 233
e 112 237
e 112 248
e 113 131
e 113 136
e 113 172
e 113 174
e 113 220
e 114 115
e 114 183
e 114 205
e 114 208
e 114 210
e 114 212
e 114 213
e 114 220
e 114 231
e 114 248
e 115 119
e 115 135
e 115 167
e 115 222
e 115 228
e 116 134
e 116 142
e 116 182
e 116 192
e 116 218
e 116 228
e 117 118
e 117 138
e 117 143
e 117 146
e 117 157
e 117 163
e 117 173
e 117 182
e 117 210
e 117 224
e 117 226
e 117 242
e 118 132
e 118 133
e 118 134
e 118 143
e 118 162
e 118 167
e 118 185
e 118 191
e 118 196
e 118 201
e 118 226
e 118 230
e 119 134
e 119 137
e 119 146
e 119 184
e 119 245
e 120 123
e 120 135
e 120 149
e 120 153
e 120 159
e 120 178
e 120 199
e 120 210
e 120 219
e 120 240
e 120 249
e 120 250
e 121 124
e 121 146
e 121 153
e 121 158
e 121 161
e 121 168
e 121 179
e 122 146
e 122 150
e 122 154
e 122 156
e 122 191
e 122 200
e 122 211
e 122 234
e 122 237
e 122 239
e 122 249
e 123 124
e 123 137
e 123 147
e 123 153
e 123 155
e 123 171
e 123 184
e 123 201
e 123 223
e 123 227
e 124 132
e 124 136
e 124 137
e 124 144
e 124 163
e 124 169
e 124 186
e 124 191
e 124 206
e 124 245
e 125 149
e 125 168
e 125 173
e 125 175
e 125 191
e 125 223
e 125 230
e 125 245
e 125 252
e 126 153
e 126 155
e 126 168
e 126 174
e 126 193
e 126 204
e 126 212
e 126 239
e 126 243
e 126 245
e 127 132
e 127 164
e 127 180
e 127 203
e 127 208
e 127 252
e 128 156
e 128 188
e 128 217
e 128 228
e 128 236
e 128 246
e 129 132
e 129 152
e 129 155
e 129 185
e 129 199
e 129 243
e 130 133
e 130 140
e 130 141
e 130 147
e 130 150
e 130 228
e 131 146
e 131 161
e 131 186
e 131 188
e 131 214
e 131 216
e 131 217
e 131 234
e 131 235
e 131 245
e 131 252
e 132 133
e 132 136
e 132 138
e 132 168
e 132 204
e 132 232
e 132 239
e 133 139
e 133 143
e 133 149
e 133 167
e 133 172
e 133 180
e 133 183
e 133 193
e 133 201
e 133 207
e 133 212
e 133 215
e 133 228
e 133 231
e 133 232
e 133 237
e 133 243
e 134 140
e 134 152
e 134 161
e 134 174
e 134 232
e 134 244
e 135 152
e 135 166
e 135 218
e 135 227
e 135 240
e 135 244
e 136 148
e 136 156
e 136 159
e 136 162
e 136 184
e 136 186
e 136 190
e 136 216
e 136 244
e 137 188
e 137 200
e 138 153
e 138 170
e 138 178
e 138 191
e 138 193
e 138 206
e 138 220
e 139 208
e 139 211
e 139 220
e 139 245
e 139 248
e 140 141
e 140 144
e 140 149
e 140 170
e 140 171
e 140 221
e 140 223
e 140 230
e 140 247
e 141 142
e 141 159
e 141 180
e 141 183
e 141 198
e 141 209
e 142 173
e 142 187
e 142 209
e 142 249
e 143 161
e 143 192
e 143 196
e 143 201
e 143 236
e 143 251
e 144 180
e 144 194
e 144 206
e 144 222
e 145 166
e 145 174
e 145 200
e 145 234
e 146 149
e 146 158
e 146 165
e 146 211
e 146 222
e 147 159
e 147 172
e 147 179
e 147 185
e 147 202
e 147 203
e 148 162
e 148 167
e 148 194
e 148 202
e 148 208
e 148 235
e 148 240
e 149 159
e 149 166
e 149 171
e 149 224
e 149 227
e 150 155
e 150 165
e 150 181
e 150 184
e 150 210
e 150 219
e 151 152
e 151 160
e 151 185
e 151 195
e 151 215
e 151 251
e 152 169
e 152 178
e 152 183
e 152 191
e 152 192
e 152 199
e 152 234
e 152 252
e 153 197
e 153 209
e 153 236
e 154 169
e 154 194
e 154 196
e 154 200
e 154 206
e 154 209
e 154 229
e 154 245
e 155 159
e 155 205
e 155 229
e 156 162
e 156 172
e 156 186
e 156 193
e 156 223
e 156 227
e 156 242
e 157 167
e 157 170
e 157 219
e 158 166
e 158 168
e 158 200
e 158 224
e 158 238
e 159 187
e 159 197
e 159 238
e 160 196
e 160 224
e 160 250
e 161 181
e 161 187
e 161 188
e 161 189
e 161 208
e 161 214
e 162 176
e 162 185
e 162 199
e 162 214
e 162 229
e 162 230
e 162 234
e 163 168
e 163 209
e 163 211
e 163 221
e 163 233
e 163 235
e 163 236
e 164 169
e 164 172
e 164 177
e 164 179
e 164 185
e 164 192
e 164 204
e 164 216
e 164 229
e 164 232
e 164 243
e 165 169
e 165 171
e 165 177
e 165 179
e 165 193
e 165 196
e 165 201
e 165 204
e 165 209
e 165 214
e 165 218
e 165 222
e 165 237
e 165 250
e 166 196
e 166 205
e 166 206
e 166 219
e 167 183
e 167 204
e 167 213
e 167 247
e 168 184
e 168 186
e 169 206
e 169 223
e 169 225
e 169 248
e 170 177
e 170 220
e 170 223
e 170 245
e 171 174
e 171 181
e 171 205
e 171 234
e 171 237
e 171 249
e 171 251
e 172 180
e 172 211
e 173 220
e 173 241
e 173 250
e 174 190
e 174 193
e 174 197
e 174 229
e 175 200
e 175 203
e 175 218
e 176 183
e 176 195
e 176 241
e 176 247
e 177 193
e 177 195
e 177 221
e 177 247
e 177 251
e 178 188
e 178 194
e 178 209
e 178 219
e 179 185
e 179 213
e 180 182
e 180 188
e 180 220
e 180 222
e 180 233
e 180 244
e 180 245
e 181 190
e 181 203
e 181 228
e 181 241
e 182 234
e 182 236
e 182 240
e 183 200
e 184 191
e 184 209
e 184 231
e 185 194
e 185 247
e 187 198
e 187 202
e 188 189
e 188 199
e 188 231
e 188 239
e 189 208
e 189 215
e 189 252
e 191 196
e 191 205
e 191 216
e 191 221
e 192 201
e 192 207
e 192 226
e 192 244
e 194 222
e 194 247
e 195 196
e 195 239
e 196 223
e 196 241
e 197 229
e 197 242
e 197 246
e 199 208
e 199 220
e 199 235
e 199 236
e 200 205
e 200 212
e 200 219
e 200 225
e 200 239
e 200 241
e 201 226
e 201 243
e 202 247
e 202 249
e 203 229
e 203 245
e 203 247
e 204 214
e 204 235
e 205 224
e 206 218
e 207 211
e 207 233
e 207 237
e 208 223
e 208 226
e 208 230
e 208 235
e 208 236
e 208 240
e 209 232
e 210 217
e 210 241
e 211 249
e 212 219
e 212 235
e 212 238
e 212 239
e 212 250
e 213 220
e 213 223
e 213 225
e 213 241
e 213 246
e 214 215
e 214 237
e 215 217
e 215 220
e 215 233
e 215 241
e 215 251
e 216 251
e 217 232
e 217 237
e 217 248
e 218 221
e 218 246
e 220 225
e 220 249
e 220 252
e 221 239
e 222 252
e 223 244
e 223 247
e 224 247
e 225 246
e 226 238
e 227 229
e 228 248
e 229 236
e 229 237
e 229 244
e 229 250
e 230 239
e 230 243
e 231 232
e 231 245
e 232 242
e 234 250
e 235 246
e 237 240
e 237 252
e 245 252
